c SAT Generator for power-law distributed variable frequencies
c -g u -v 20 -c 91 -k 3 -p 2.750000 -b 3.200000 -f /home/schmidt/Devel/ni-kop-sat/data/ensemble/ruf20-91/ruf20-91-195 -u 1 -U 1 -s 2410329147
p cnf 20 91
11 -14 20 0
6 -19 20 0
-6 10 -12 0
1 3 -9 0
2 9 -12 0
-1 -11 -20 0
-5 13 14 0
-10 13 -14 0
9 -10 18 0
3 -6 7 0
-9 -12 -15 0
4 -17 19 0
-4 8 -13 0
-8 -11 -18 0
3 5 -18 0
3 14 -17 0
-10 16 18 0
3 -4 -15 0
-2 -6 19 0
9 15 -18 0
2 -8 -15 0
2 9 -17 0
3 5 9 0
2 6 -20 0
-4 16 -18 0
3 -7 20 0
-9 -15 -17 0
4 7 8 0
7 11 20 0
5 -8 -20 0
-9 14 -17 0
7 -10 -20 0
5 -8 -10 0
10 17 20 0
-7 18 -19 0
-1 10 -11 0
-7 -12 18 0
-5 -8 -16 0
3 13 20 0
-3 -11 12 0
-7 -8 -12 0
-1 -7 12 0
-2 4 20 0
3 -4 6 0
-6 -7 17 0
-1 -3 18 0
11 -13 -17 0
-6 15 20 0
-7 -18 -19 0
-1 -13 -20 0
3 -16 -18 0
-1 -6 -18 0
-8 13 18 0
2 4 15 0
-4 -6 -18 0
6 -10 -13 0
-2 -5 -6 0
12 13 15 0
-4 -7 16 0
-1 -8 -19 0
-7 11 -13 0
-6 17 18 0
2 11 12 0
2 9 -15 0
8 9 15 0
8 12 14 0
-9 -12 -20 0
-2 -5 16 0
-4 -13 15 0
-3 4 18 0
4 -7 -15 0
-5 -11 16 0
6 10 18 0
-4 -16 -20 0
12 -19 20 0
6 -12 -20 0
1 -11 -13 0
-6 11 -16 0
-1 2 12 0
1 10 -16 0
5 -6 20 0
-6 11 -15 0
2 -12 -14 0
-2 -6 15 0
9 11 15 0
-1 -14 17 0
-9 -11 13 0
-2 -12 20 0
-3 -4 -17 0
-2 11 12 0
-8 10 -20 0
